(set-logic ALL)
(declare-fun var0 () String)
(assert (str.in_re var0 (re.++ (re.union (re.* (re.union (re.union (re.* (re.* (re.union (re.* (re.union (re.+ (str.to_re "0")) (re.+ (str.to_re "111")))) (re.* (re.union (re.* (str.to_re "2")) (re.* (str.to_re "333"))))))) (re.* (re.+ (re.+ (re.+ (re.union (re.+ (str.to_re "4")) (re.+ (str.to_re "5")))))))) (re.union (re.* (re.+ (re.* (re.union (re.union (re.union (str.to_re "666") (str.to_re "7")) (re.union (str.to_re "8") (str.to_re "9"))) (re.union (re.+ (str.to_re "a")) (re.+ (str.to_re "b"))))))) (re.* (re.* (re.+ (re.* (re.+ (re.* (str.to_re "ccc")))))))))) (re.* (re.union (re.union (re.* (re.+ (re.* (re.+ (re.union (re.+ (str.to_re "dd")) (re.+ (str.to_re "e"))))))) (re.* (re.union (re.union (re.* (re.+ (re.+ (str.to_re "f")))) (re.* (re.* (re.+ (str.to_re "g"))))) (re.union (re.+ (re.union (re.union (str.to_re "hh") (str.to_re "ii")) (re.union (str.to_re "jj") (str.to_re "kkk")))) (re.+ (re.+ (re.* (str.to_re "lll")))))))) (re.union (re.union (re.union (re.* (re.union (re.+ (re.+ (str.to_re "mm"))) (re.+ (re.* (str.to_re "nn"))))) (re.* (re.union (re.union (re.* (str.to_re "oo")) (re.* (str.to_re "p"))) (re.union (re.+ (str.to_re "qqq")) (re.+ (str.to_re "rr")))))) (re.union (re.* (re.+ (re.+ (re.* (str.to_re "ss"))))) (re.* (re.+ (re.* (re.union (str.to_re "ttt") (str.to_re "uu"))))))) (re.union (re.* (re.union (re.* (re.* (re.union (str.to_re "vvv") (str.to_re "www")))) (re.* (re.+ (re.union (str.to_re "xxx") (str.to_re "yyy")))))) (re.* (re.* (re.union (re.union (re.+ (str.to_re "z")) (re.+ (str.to_re "AA"))) (re.union (re.+ (str.to_re "B")) (re.+ (str.to_re "C"))))))))))) (re.+ (re.union (re.* (re.* (re.* (re.* (re.* (re.* (re.* (re.+ (str.to_re "D"))))))))) (re.* (re.union (re.* (re.* (re.* (re.+ (re.+ (re.* (str.to_re "E"))))))) (re.* (re.union (re.+ (re.* (re.union (re.+ (str.to_re "FFF")) (re.+ (str.to_re "G"))))) (re.+ (re.+ (re.* (re.+ (str.to_re "HH"))))))))))))))
(assert (<= 15 (str.len var0)))
(check-sat)